c Reduced graph for DSJR500.1_8 generated by Cyril Grelier
p edge 312 2340
e 1 9
e 1 10
e 1 23
e 1 27
e 1 30
e 1 64
e 1 75
e 1 97
e 1 98
e 1 103
e 1 116
e 1 129
e 1 130
e 1 139
e 1 165
e 1 179
e 1 185
e 1 230
e 1 233
e 1 251
e 1 271
e 1 279
e 1 280
e 2 8
e 2 29
e 2 48
e 2 95
e 2 111
e 2 123
e 2 159
e 2 160
e 2 166
e 2 176
e 2 204
e 2 211
e 2 231
e 2 236
e 2 261
e 2 262
e 2 268
e 2 269
e 2 273
e 3 7
e 3 39
e 3 55
e 3 59
e 3 63
e 3 67
e 3 96
e 3 109
e 3 112
e 3 124
e 3 174
e 3 188
e 3 194
e 3 195
e 3 209
e 3 232
e 3 240
e 3 247
e 3 282
e 4 22
e 4 33
e 4 42
e 4 68
e 4 84
e 4 110
e 4 115
e 4 142
e 4 164
e 4 168
e 4 169
e 4 187
e 4 202
e 4 239
e 4 246
e 4 291
e 4 303
e 4 308
e 5 24
e 5 69
e 5 92
e 5 94
e 5 167
e 5 192
e 5 210
e 5 229
e 5 234
e 5 257
e 5 259
e 5 260
e 5 266
e 5 270
e 5 275
e 5 286
e 5 292
e 5 301
e 6 22
e 6 29
e 6 68
e 6 70
e 6 110
e 6 152
e 6 164
e 6 168
e 6 199
e 6 212
e 6 213
e 6 235
e 6 246
e 6 261
e 6 268
e 6 276
e 6 302
e 6 303
e 7 34
e 7 39
e 7 55
e 7 67
e 7 96
e 7 100
e 7 106
e 7 112
e 7 124
e 7 125
e 7 143
e 7 174
e 7 195
e 7 221
e 7 244
e 7 282
e 8 29
e 8 48
e 8 95
e 8 123
e 8 159
e 8 166
e 8 176
e 8 204
e 8 211
e 8 236
e 8 261
e 8 262
e 8 268
e 8 269
e 8 273
e 8 302
e 9 10
e 9 23
e 9 27
e 9 30
e 9 64
e 9 75
e 9 103
e 9 155
e 9 179
e 9 185
e 9 233
e 9 251
e 9 271
e 9 279
e 9 285
e 10 23
e 10 30
e 10 64
e 10 75
e 10 103
e 10 155
e 10 179
e 10 185
e 10 233
e 10 251
e 10 271
e 10 279
e 10 285
e 11 13
e 11 28
e 11 36
e 11 52
e 11 53
e 11 73
e 11 197
e 11 224
e 11 237
e 11 255
e 11 258
e 11 259
e 11 266
e 11 275
e 11 295
e 12 38
e 12 47
e 12 114
e 12 128
e 12 137
e 12 141
e 12 153
e 12 172
e 12 175
e 12 198
e 12 248
e 12 264
e 12 288
e 12 293
e 13 28
e 13 36
e 13 52
e 13 197
e 13 237
e 13 255
e 13 258
e 13 259
e 13 266
e 13 275
e 13 292
e 13 295
e 14 81
e 14 82
e 14 99
e 14 131
e 14 144
e 14 154
e 14 190
e 14 191
e 14 205
e 14 249
e 14 298
e 15 20
e 15 32
e 15 72
e 15 105
e 15 127
e 15 136
e 15 215
e 15 243
e 15 250
e 15 265
e 15 304
e 16 17
e 16 111
e 16 159
e 16 160
e 16 176
e 16 204
e 16 231
e 16 236
e 16 262
e 16 269
e 17 60
e 17 61
e 17 111
e 17 119
e 17 132
e 17 219
e 17 231
e 17 299
e 17 312
e 18 58
e 18 77
e 18 85
e 18 90
e 18 116
e 18 117
e 18 140
e 18 165
e 18 280
e 19 34
e 19 40
e 19 47
e 19 100
e 19 126
e 19 172
e 19 252
e 19 296
e 20 72
e 20 105
e 20 136
e 20 283
e 20 304
e 21 91
e 21 135
e 21 199
e 21 291
e 22 33
e 22 68
e 22 70
e 22 84
e 22 110
e 22 135
e 22 152
e 22 164
e 22 168
e 22 169
e 22 187
e 22 199
e 22 202
e 22 212
e 22 213
e 22 239
e 22 246
e 22 276
e 22 291
e 22 303
e 23 27
e 23 30
e 23 64
e 23 75
e 23 97
e 23 98
e 23 116
e 23 129
e 23 130
e 23 139
e 23 165
e 23 179
e 23 185
e 23 230
e 23 233
e 23 251
e 23 271
e 23 279
e 23 280
e 24 49
e 24 69
e 24 92
e 24 94
e 24 101
e 24 167
e 24 196
e 24 210
e 24 229
e 24 234
e 24 238
e 24 257
e 24 260
e 24 267
e 24 270
e 24 286
e 24 292
e 24 301
e 24 307
e 25 26
e 25 49
e 25 66
e 25 92
e 25 101
e 25 138
e 25 149
e 25 150
e 25 157
e 25 173
e 25 182
e 25 189
e 25 257
e 25 259
e 25 263
e 25 267
e 25 274
e 25 301
e 25 306
e 25 309
e 26 49
e 26 66
e 26 83
e 26 133
e 26 138
e 26 149
e 26 150
e 26 173
e 26 180
e 26 182
e 26 189
e 26 193
e 26 223
e 26 263
e 26 274
e 26 289
e 26 306
e 26 309
e 27 64
e 27 78
e 27 97
e 27 98
e 27 129
e 27 130
e 27 139
e 27 151
e 27 165
e 27 201
e 27 230
e 27 233
e 27 271
e 27 278
e 27 281
e 27 283
e 28 31
e 28 52
e 28 53
e 28 66
e 28 113
e 28 149
e 28 150
e 28 173
e 28 197
e 28 224
e 28 237
e 28 258
e 28 259
e 28 274
e 28 275
e 28 289
e 28 305
e 29 48
e 29 70
e 29 95
e 29 123
e 29 152
e 29 159
e 29 176
e 29 199
e 29 211
e 29 213
e 29 261
e 29 268
e 29 269
e 29 276
e 29 302
e 30 64
e 30 75
e 30 103
e 30 116
e 30 155
e 30 165
e 30 179
e 30 185
e 30 230
e 30 233
e 30 251
e 30 271
e 30 279
e 30 285
e 31 52
e 31 53
e 31 71
e 31 73
e 31 74
e 31 113
e 31 174
e 31 197
e 31 217
e 31 224
e 31 237
e 31 253
e 31 258
e 31 289
e 31 305
e 32 48
e 32 72
e 32 95
e 32 105
e 32 127
e 32 166
e 32 183
e 32 211
e 32 214
e 32 215
e 32 243
e 32 250
e 32 261
e 32 265
e 32 304
e 33 68
e 33 110
e 33 115
e 33 142
e 33 164
e 33 168
e 33 169
e 33 202
e 33 235
e 33 239
e 33 246
e 33 303
e 33 308
e 34 39
e 34 40
e 34 45
e 34 55
e 34 59
e 34 100
e 34 125
e 34 126
e 34 252
e 34 277
e 34 282
e 34 296
e 35 72
e 35 76
e 35 78
e 35 105
e 35 127
e 35 151
e 35 181
e 35 201
e 35 214
e 35 241
e 35 265
e 35 283
e 35 304
e 35 310
e 36 52
e 36 197
e 36 237
e 36 255
e 36 258
e 36 266
e 36 275
e 36 292
e 36 295
e 37 51
e 37 62
e 37 87
e 37 88
e 37 120
e 37 148
e 37 163
e 37 170
e 37 171
e 37 242
e 38 47
e 38 114
e 38 128
e 38 153
e 38 175
e 38 248
e 38 264
e 38 288
e 38 293
e 39 55
e 39 59
e 39 112
e 39 124
e 39 247
e 39 282
e 40 45
e 40 100
e 40 126
e 40 172
e 40 252
e 40 282
e 40 296
e 41 79
e 41 145
e 41 161
e 41 178
e 41 186
e 41 203
e 41 220
e 41 311
e 42 43
e 42 84
e 42 187
e 42 202
e 42 239
e 42 245
e 43 57
e 43 84
e 43 135
e 43 187
e 43 239
e 43 245
e 44 134
e 44 162
e 44 207
e 44 242
e 44 256
e 44 272
e 45 59
e 45 282
e 46 47
e 46 80
e 46 93
e 46 114
e 46 125
e 46 126
e 46 128
e 46 137
e 46 141
e 46 156
e 46 172
e 46 175
e 46 198
e 46 218
e 46 221
e 46 225
e 46 227
e 46 248
e 46 264
e 46 277
e 46 288
e 46 293
e 46 294
e 46 297
e 47 93
e 47 100
e 47 114
e 47 125
e 47 126
e 47 128
e 47 137
e 47 141
e 47 153
e 47 172
e 47 175
e 47 221
e 47 248
e 47 252
e 47 264
e 47 277
e 47 288
e 47 293
e 47 296
e 48 70
e 48 95
e 48 123
e 48 166
e 48 183
e 48 211
e 48 213
e 48 215
e 48 236
e 48 250
e 48 261
e 48 262
e 48 265
e 48 268
e 48 269
e 48 273
e 48 276
e 48 302
e 49 66
e 49 92
e 49 101
e 49 138
e 49 157
e 49 173
e 49 182
e 49 184
e 49 229
e 49 257
e 49 259
e 49 260
e 49 263
e 49 267
e 49 274
e 49 301
e 49 309
e 50 51
e 50 54
e 50 63
e 50 65
e 50 109
e 50 162
e 50 170
e 50 171
e 50 194
e 50 200
e 50 207
e 50 208
e 50 209
e 50 222
e 50 256
e 50 272
e 50 287
e 50 290
e 50 300
e 51 54
e 51 63
e 51 65
e 51 120
e 51 134
e 51 162
e 51 163
e 51 170
e 51 171
e 51 200
e 51 208
e 51 209
e 51 222
e 51 242
e 51 256
e 51 272
e 51 300
e 52 53
e 52 71
e 52 73
e 52 74
e 52 197
e 52 224
e 52 237
e 52 255
e 52 258
e 52 275
e 52 290
e 52 295
e 53 71
e 53 73
e 53 74
e 53 113
e 53 174
e 53 197
e 53 224
e 53 237
e 53 253
e 53 258
e 53 290
e 53 295
e 53 305
e 54 63
e 54 65
e 54 134
e 54 162
e 54 170
e 54 171
e 54 200
e 54 207
e 54 208
e 54 222
e 54 242
e 54 256
e 54 272
e 54 287
e 54 300
e 55 59
e 55 100
e 55 106
e 55 112
e 55 124
e 55 125
e 55 126
e 55 143
e 55 221
e 55 277
e 55 282
e 56 80
e 56 93
e 56 118
e 56 156
e 56 198
e 56 218
e 56 227
e 56 294
e 57 84
e 57 91
e 57 135
e 57 187
e 57 239
e 57 245
e 57 291
e 58 77
e 58 85
e 58 102
e 58 140
e 58 278
e 58 281
e 59 112
e 59 282
e 60 61
e 60 119
e 60 219
e 60 299
e 61 119
e 61 121
e 61 299
e 62 87
e 62 148
e 62 163
e 63 65
e 63 67
e 63 96
e 63 109
e 63 112
e 63 120
e 63 124
e 63 170
e 63 171
e 63 188
e 63 194
e 63 195
e 63 208
e 63 209
e 63 222
e 63 232
e 63 240
e 63 247
e 63 287
e 63 300
e 64 75
e 64 97
e 64 98
e 64 103
e 64 116
e 64 129
e 64 139
e 64 155
e 64 165
e 64 179
e 64 185
e 64 230
e 64 233
e 64 251
e 64 271
e 64 279
e 64 280
e 64 285
e 65 96
e 65 109
e 65 170
e 65 171
e 65 194
e 65 195
e 65 200
e 65 208
e 65 209
e 65 222
e 65 232
e 65 240
e 65 247
e 65 272
e 65 287
e 65 290
e 65 300
e 66 113
e 66 138
e 66 149
e 66 150
e 66 173
e 66 180
e 66 182
e 66 223
e 66 258
e 66 259
e 66 263
e 66 274
e 66 289
e 66 301
e 66 305
e 66 306
e 66 309
e 67 71
e 67 73
e 67 74
e 67 96
e 67 109
e 67 112
e 67 124
e 67 174
e 67 194
e 67 195
e 67 208
e 67 209
e 67 232
e 67 247
e 67 287
e 67 290
e 67 300
e 68 70
e 68 110
e 68 152
e 68 164
e 68 168
e 68 169
e 68 199
e 68 212
e 68 213
e 68 235
e 68 246
e 68 268
e 68 276
e 68 291
e 68 302
e 68 303
e 69 92
e 69 94
e 69 167
e 69 192
e 69 210
e 69 229
e 69 234
e 69 257
e 69 259
e 69 260
e 69 266
e 69 267
e 69 270
e 69 275
e 69 286
e 69 292
e 69 301
e 70 110
e 70 152
e 70 164
e 70 168
e 70 199
e 70 212
e 70 213
e 70 235
e 70 246
e 70 261
e 70 268
e 70 276
e 70 302
e 70 303
e 71 73
e 71 74
e 71 96
e 71 109
e 71 174
e 71 194
e 71 197
e 71 200
e 71 224
e 71 232
e 71 237
e 71 287
e 71 290
e 71 295
e 71 300
e 72 78
e 72 105
e 72 127
e 72 136
e 72 181
e 72 183
e 72 201
e 72 214
e 72 241
e 72 250
e 72 265
e 72 283
e 72 304
e 72 310
e 73 74
e 73 109
e 73 194
e 73 197
e 73 200
e 73 224
e 73 237
e 73 287
e 73 290
e 73 295
e 73 300
e 74 96
e 74 109
e 74 174
e 74 194
e 74 195
e 74 208
e 74 224
e 74 232
e 74 287
e 74 290
e 74 300
e 75 103
e 75 155
e 75 179
e 75 185
e 75 233
e 75 251
e 75 271
e 75 279
e 75 285
e 76 115
e 76 142
e 76 147
e 76 151
e 76 168
e 76 181
e 76 201
e 76 214
e 76 228
e 76 235
e 76 241
e 76 303
e 76 308
e 76 310
e 77 85
e 77 98
e 77 102
e 77 117
e 77 129
e 77 130
e 77 140
e 77 165
e 77 230
e 77 278
e 77 280
e 77 281
e 78 97
e 78 139
e 78 151
e 78 181
e 78 201
e 78 214
e 78 241
e 78 279
e 78 283
e 78 304
e 78 310
e 79 82
e 79 99
e 79 131
e 79 161
e 79 186
e 79 203
e 79 216
e 79 220
e 79 249
e 79 254
e 79 284
e 79 311
e 80 93
e 80 118
e 80 156
e 80 158
e 80 198
e 80 218
e 80 225
e 80 227
e 80 294
e 80 297
e 81 82
e 81 99
e 81 131
e 81 144
e 81 154
e 81 190
e 81 191
e 81 205
e 81 249
e 81 298
e 82 99
e 82 131
e 82 144
e 82 154
e 82 190
e 82 216
e 82 249
e 82 298
e 83 118
e 83 133
e 83 138
e 83 149
e 83 180
e 83 189
e 83 193
e 83 223
e 83 306
e 83 309
e 84 169
e 84 187
e 84 202
e 84 239
e 84 245
e 84 291
e 85 90
e 85 102
e 85 117
e 85 140
e 85 165
e 85 230
e 85 280
e 85 281
e 86 101
e 86 108
e 86 122
e 86 157
e 86 184
e 86 206
e 86 229
e 86 238
e 86 257
e 86 260
e 86 267
e 87 88
e 87 134
e 87 148
e 87 163
e 87 242
e 88 134
e 88 148
e 88 163
e 88 242
e 89 90
e 89 104
e 89 117
e 89 146
e 89 226
e 89 234
e 90 116
e 90 117
e 90 280
e 91 135
e 91 245
e 91 291
e 92 94
e 92 101
e 92 167
e 92 196
e 92 210
e 92 229
e 92 234
e 92 257
e 92 259
e 92 260
e 92 263
e 92 266
e 92 267
e 92 270
e 92 292
e 92 301
e 92 307
e 93 114
e 93 128
e 93 137
e 93 141
e 93 153
e 93 156
e 93 175
e 93 198
e 93 218
e 93 225
e 93 227
e 93 248
e 93 264
e 93 288
e 93 293
e 93 294
e 93 297
e 94 104
e 94 146
e 94 167
e 94 196
e 94 210
e 94 226
e 94 229
e 94 234
e 94 238
e 94 257
e 94 260
e 94 267
e 94 270
e 94 286
e 94 292
e 94 301
e 94 307
e 95 111
e 95 123
e 95 166
e 95 176
e 95 177
e 95 204
e 95 211
e 95 231
e 95 236
e 95 261
e 95 262
e 95 268
e 95 269
e 95 273
e 95 302
e 96 109
e 96 112
e 96 124
e 96 174
e 96 194
e 96 195
e 96 208
e 96 209
e 96 232
e 96 247
e 96 287
e 96 300
e 97 98
e 97 102
e 97 129
e 97 130
e 97 139
e 97 140
e 97 151
e 97 165
e 97 181
e 97 201
e 97 230
e 97 278
e 97 281
e 98 102
e 98 129
e 98 130
e 98 139
e 98 140
e 98 165
e 98 230
e 98 233
e 98 271
e 98 278
e 98 281
e 99 131
e 99 144
e 99 154
e 99 186
e 99 203
e 99 216
e 99 220
e 99 249
e 99 254
e 99 284
e 99 298
e 99 311
e 100 125
e 100 126
e 100 137
e 100 143
e 100 172
e 100 221
e 100 252
e 100 277
e 100 282
e 100 296
e 101 122
e 101 157
e 101 182
e 101 184
e 101 210
e 101 229
e 101 257
e 101 260
e 101 263
e 101 267
e 101 301
e 102 129
e 102 130
e 102 139
e 102 140
e 102 165
e 102 230
e 102 278
e 102 280
e 102 281
e 103 116
e 103 155
e 103 179
e 103 192
e 103 233
e 103 251
e 103 271
e 103 285
e 104 146
e 104 167
e 104 196
e 104 206
e 104 210
e 104 226
e 104 229
e 104 234
e 104 238
e 104 270
e 104 307
e 105 127
e 105 136
e 105 215
e 105 243
e 105 250
e 105 265
e 105 283
e 105 304
e 106 125
e 106 143
e 106 156
e 106 158
e 106 174
e 106 217
e 106 221
e 106 225
e 106 244
e 106 253
e 106 297
e 107 111
e 107 132
e 107 145
e 107 166
e 107 177
e 107 178
e 107 215
e 107 231
e 107 243
e 107 262
e 107 273
e 107 312
e 108 122
e 108 157
e 108 184
e 108 206
e 108 238
e 108 267
e 109 112
e 109 124
e 109 170
e 109 171
e 109 174
e 109 194
e 109 195
e 109 200
e 109 208
e 109 209
e 109 222
e 109 232
e 109 247
e 109 287
e 109 290
e 109 300
e 110 115
e 110 142
e 110 152
e 110 164
e 110 168
e 110 169
e 110 199
e 110 212
e 110 213
e 110 235
e 110 246
e 110 276
e 110 302
e 110 303
e 110 308
e 111 119
e 111 123
e 111 132
e 111 160
e 111 176
e 111 177
e 111 178
e 111 219
e 111 231
e 111 236
e 111 262
e 111 269
e 111 273
e 111 299
e 111 312
e 112 124
e 112 174
e 112 188
e 112 194
e 112 195
e 112 209
e 112 232
e 112 240
e 112 247
e 112 282
e 113 133
e 113 138
e 113 149
e 113 150
e 113 173
e 113 180
e 113 217
e 113 223
e 113 253
e 113 258
e 113 274
e 113 289
e 113 305
e 113 306
e 114 128
e 114 137
e 114 141
e 114 153
e 114 175
e 114 198
e 114 218
e 114 248
e 114 264
e 114 288
e 114 293
e 114 294
e 115 142
e 115 147
e 115 164
e 115 168
e 115 169
e 115 228
e 115 235
e 115 303
e 115 308
e 116 117
e 116 165
e 116 230
e 116 251
e 116 280
e 117 140
e 117 165
e 117 230
e 117 280
e 118 133
e 118 156
e 118 158
e 118 180
e 118 193
e 118 223
e 118 227
e 119 121
e 119 132
e 119 219
e 119 231
e 119 299
e 119 312
e 120 170
e 120 171
e 120 188
e 120 209
e 120 240
e 120 247
e 121 132
e 121 178
e 121 203
e 121 219
e 121 299
e 121 312
e 122 157
e 122 182
e 122 184
e 122 257
e 122 267
e 123 159
e 123 160
e 123 166
e 123 176
e 123 204
e 123 211
e 123 231
e 123 236
e 123 261
e 123 262
e 123 268
e 123 269
e 123 273
e 123 302
e 124 174
e 124 188
e 124 194
e 124 195
e 124 208
e 124 209
e 124 232
e 124 240
e 124 247
e 124 300
e 125 126
e 125 137
e 125 143
e 125 172
e 125 221
e 125 225
e 125 252
e 125 277
e 125 282
e 125 296
e 125 297
e 126 137
e 126 143
e 126 172
e 126 221
e 126 252
e 126 277
e 126 282
e 126 288
e 126 296
e 127 136
e 127 181
e 127 183
e 127 214
e 127 215
e 127 241
e 127 243
e 127 250
e 127 265
e 127 304
e 127 310
e 128 137
e 128 141
e 128 153
e 128 172
e 128 175
e 128 198
e 128 248
e 128 264
e 128 288
e 128 293
e 129 130
e 129 139
e 129 140
e 129 165
e 129 230
e 129 278
e 129 280
e 129 281
e 130 139
e 130 140
e 130 151
e 130 165
e 130 201
e 130 230
e 130 278
e 130 281
e 131 144
e 131 154
e 131 190
e 131 191
e 131 205
e 131 216
e 131 249
e 131 254
e 131 284
e 131 298
e 132 145
e 132 177
e 132 178
e 132 219
e 132 231
e 132 262
e 132 273
e 132 299
e 132 312
e 133 149
e 133 150
e 133 158
e 133 180
e 133 217
e 133 223
e 133 253
e 133 289
e 133 305
e 133 306
e 134 162
e 134 163
e 134 207
e 134 242
e 134 256
e 134 272
e 135 239
e 135 245
e 135 291
e 136 215
e 136 283
e 136 304
e 137 141
e 137 153
e 137 172
e 137 175
e 137 198
e 137 221
e 137 248
e 137 252
e 137 264
e 137 277
e 137 288
e 137 293
e 137 294
e 137 296
e 138 149
e 138 150
e 138 173
e 138 180
e 138 182
e 138 189
e 138 223
e 138 259
e 138 263
e 138 274
e 138 289
e 138 306
e 138 309
e 139 140
e 139 151
e 139 181
e 139 201
e 139 230
e 139 241
e 139 278
e 139 281
e 140 165
e 140 230
e 140 278
e 140 280
e 140 281
e 141 153
e 141 175
e 141 198
e 141 218
e 141 248
e 141 264
e 141 288
e 141 293
e 141 294
e 142 147
e 142 164
e 142 168
e 142 169
e 142 228
e 142 235
e 142 303
e 142 308
e 143 158
e 143 174
e 143 221
e 143 225
e 143 244
e 143 277
e 143 297
e 144 154
e 144 190
e 144 191
e 144 205
e 144 216
e 144 249
e 144 298
e 145 161
e 145 177
e 145 178
e 145 186
e 145 203
e 145 243
e 145 311
e 145 312
e 146 167
e 146 196
e 146 206
e 146 226
e 146 234
e 146 238
e 146 307
e 147 228
e 147 278
e 147 303
e 147 308
e 148 163
e 148 242
e 149 150
e 149 173
e 149 180
e 149 217
e 149 223
e 149 253
e 149 258
e 149 259
e 149 274
e 149 289
e 149 305
e 149 306
e 150 173
e 150 180
e 150 217
e 150 223
e 150 253
e 150 258
e 150 259
e 150 274
e 150 289
e 150 305
e 150 306
e 151 181
e 151 201
e 151 214
e 151 228
e 151 235
e 151 241
e 151 278
e 151 308
e 151 310
e 152 164
e 152 199
e 152 212
e 152 213
e 152 246
e 152 268
e 152 276
e 152 291
e 152 302
e 153 175
e 153 198
e 153 218
e 153 248
e 153 264
e 153 288
e 153 293
e 154 190
e 154 191
e 154 205
e 154 249
e 154 254
e 154 284
e 154 298
e 155 179
e 155 185
e 155 233
e 155 271
e 155 279
e 155 285
e 156 158
e 156 225
e 156 227
e 156 244
e 156 294
e 156 297
e 157 182
e 157 184
e 157 257
e 157 263
e 157 267
e 157 309
e 158 217
e 158 221
e 158 225
e 158 227
e 158 244
e 158 297
e 159 160
e 159 176
e 159 204
e 159 236
e 159 268
e 159 269
e 160 176
e 160 204
e 160 231
e 160 236
e 160 262
e 160 269
e 161 178
e 161 186
e 161 203
e 161 216
e 161 220
e 161 284
e 161 311
e 162 200
e 162 207
e 162 222
e 162 256
e 162 272
e 163 171
e 163 242
e 164 168
e 164 169
e 164 202
e 164 212
e 164 213
e 164 235
e 164 239
e 164 246
e 164 276
e 164 291
e 164 303
e 164 308
e 165 230
e 165 233
e 165 251
e 165 280
e 165 281
e 166 176
e 166 177
e 166 183
e 166 211
e 166 215
e 166 236
e 166 243
e 166 250
e 166 261
e 166 262
e 166 268
e 166 269
e 166 273
e 167 196
e 167 210
e 167 226
e 167 229
e 167 234
e 167 238
e 167 257
e 167 260
e 167 267
e 167 270
e 167 286
e 167 301
e 167 307
e 168 169
e 168 202
e 168 212
e 168 228
e 168 235
e 168 246
e 168 303
e 168 308
e 169 187
e 169 202
e 169 235
e 169 239
e 169 246
e 169 291
e 169 303
e 169 308
e 170 171
e 170 188
e 170 208
e 170 209
e 170 222
e 170 240
e 170 242
e 170 247
e 170 272
e 170 300
e 171 188
e 171 208
e 171 209
e 171 222
e 171 240
e 171 242
e 171 272
e 171 300
e 172 221
e 172 248
e 172 252
e 172 277
e 172 288
e 172 293
e 172 296
e 173 258
e 173 259
e 173 263
e 173 274
e 173 289
e 173 301
e 173 305
e 173 306
e 174 194
e 174 195
e 174 232
e 174 244
e 175 198
e 175 218
e 175 248
e 175 264
e 175 288
e 175 293
e 175 294
e 176 204
e 176 231
e 176 236
e 176 262
e 176 269
e 176 273
e 177 178
e 177 219
e 177 231
e 177 236
e 177 243
e 177 262
e 177 269
e 177 273
e 177 299
e 177 312
e 178 186
e 178 203
e 178 219
e 178 243
e 178 299
e 178 311
e 178 312
e 179 185
e 179 233
e 179 251
e 179 271
e 179 279
e 179 285
e 180 189
e 180 193
e 180 223
e 180 289
e 180 306
e 180 309
e 181 201
e 181 214
e 181 241
e 181 265
e 181 283
e 181 304
e 181 310
e 182 184
e 182 189
e 182 257
e 182 263
e 182 301
e 182 309
e 183 211
e 183 214
e 183 215
e 183 250
e 183 261
e 183 265
e 183 302
e 183 304
e 183 310
e 184 206
e 184 229
e 184 238
e 184 257
e 184 260
e 184 263
e 184 267
e 185 233
e 185 271
e 185 279
e 185 285
e 186 203
e 186 216
e 186 220
e 186 254
e 186 284
e 186 311
e 187 202
e 187 239
e 187 245
e 187 291
e 188 195
e 188 209
e 188 240
e 188 247
e 189 193
e 189 223
e 189 263
e 189 306
e 189 309
e 190 191
e 190 205
e 190 249
e 190 298
e 191 205
e 191 249
e 191 298
e 192 255
e 192 266
e 192 270
e 192 275
e 192 286
e 192 292
e 193 223
e 193 306
e 193 309
e 194 195
e 194 208
e 194 209
e 194 222
e 194 232
e 194 247
e 194 287
e 194 290
e 194 300
e 195 208
e 195 209
e 195 232
e 195 240
e 195 247
e 195 287
e 195 300
e 196 206
e 196 210
e 196 226
e 196 229
e 196 234
e 196 238
e 196 257
e 196 260
e 196 267
e 196 270
e 196 307
e 197 224
e 197 237
e 197 255
e 197 258
e 197 274
e 197 275
e 197 295
e 197 305
e 198 218
e 198 248
e 198 264
e 198 288
e 198 293
e 198 294
e 199 212
e 199 213
e 199 246
e 199 261
e 199 268
e 199 276
e 199 291
e 199 302
e 200 207
e 200 208
e 200 222
e 200 256
e 200 272
e 200 287
e 200 290
e 200 300
e 201 214
e 201 228
e 201 241
e 201 278
e 201 283
e 201 310
e 202 239
e 202 245
e 202 246
e 202 291
e 203 216
e 203 220
e 203 284
e 203 311
e 204 231
e 204 236
e 204 262
e 204 269
e 205 249
e 205 254
e 205 284
e 205 298
e 206 226
e 206 229
e 206 238
e 206 260
e 206 307
e 207 222
e 207 256
e 207 272
e 208 209
e 208 222
e 208 232
e 208 240
e 208 247
e 208 272
e 208 287
e 208 290
e 208 300
e 209 232
e 209 240
e 209 247
e 209 300
e 210 229
e 210 234
e 210 257
e 210 260
e 210 266
e 210 267
e 210 270
e 210 286
e 210 292
e 210 301
e 210 307
e 211 213
e 211 215
e 211 236
e 211 250
e 211 261
e 211 262
e 211 265
e 211 268
e 211 269
e 211 273
e 211 302
e 212 213
e 212 235
e 212 246
e 212 261
e 212 268
e 212 276
e 212 302
e 212 303
e 212 308
e 213 246
e 213 261
e 213 268
e 213 276
e 213 302
e 214 235
e 214 241
e 214 250
e 214 265
e 214 283
e 214 304
e 214 310
e 215 243
e 215 250
e 215 265
e 215 273
e 215 304
e 216 220
e 216 249
e 216 254
e 216 284
e 216 298
e 216 311
e 217 223
e 217 244
e 217 253
e 217 258
e 217 289
e 217 305
e 218 227
e 218 248
e 218 264
e 218 294
e 219 231
e 219 299
e 219 312
e 220 254
e 220 284
e 220 311
e 221 225
e 221 244
e 221 252
e 221 277
e 221 288
e 221 296
e 221 297
e 222 256
e 222 272
e 222 287
e 222 290
e 222 300
e 223 289
e 223 306
e 223 309
e 224 237
e 224 258
e 224 287
e 224 290
e 224 295
e 224 305
e 225 227
e 225 244
e 225 277
e 225 297
e 226 234
e 226 238
e 226 270
e 226 307
e 227 294
e 227 297
e 228 235
e 228 303
e 228 308
e 229 234
e 229 238
e 229 257
e 229 260
e 229 267
e 229 270
e 229 301
e 229 307
e 230 233
e 230 251
e 230 278
e 230 280
e 230 281
e 231 236
e 231 262
e 231 269
e 231 273
e 231 299
e 231 312
e 232 240
e 232 247
e 232 287
e 232 290
e 232 300
e 233 251
e 233 271
e 233 279
e 233 285
e 234 238
e 234 260
e 234 270
e 234 286
e 234 307
e 235 246
e 235 303
e 235 308
e 236 262
e 236 269
e 236 273
e 237 255
e 237 258
e 237 275
e 237 295
e 237 305
e 238 260
e 238 267
e 238 307
e 239 245
e 239 246
e 239 291
e 240 247
e 241 265
e 241 283
e 241 304
e 241 310
e 242 272
e 243 250
e 244 253
e 244 297
e 245 291
e 246 268
e 246 276
e 246 291
e 246 302
e 246 303
e 247 300
e 248 264
e 248 288
e 248 293
e 248 294
e 249 254
e 249 284
e 249 298
e 250 261
e 250 265
e 250 304
e 251 271
e 251 280
e 252 277
e 252 282
e 252 296
e 253 258
e 253 289
e 253 305
e 254 284
e 254 311
e 255 266
e 255 275
e 255 292
e 255 295
e 256 272
e 256 287
e 257 260
e 257 263
e 257 267
e 257 301
e 257 307
e 258 259
e 258 274
e 258 289
e 258 295
e 258 305
e 259 263
e 259 266
e 259 274
e 259 275
e 259 289
e 259 292
e 259 301
e 260 267
e 260 270
e 260 301
e 260 307
e 261 265
e 261 268
e 261 276
e 261 302
e 262 269
e 262 273
e 263 267
e 263 274
e 263 301
e 263 309
e 264 288
e 264 293
e 264 294
e 265 304
e 265 310
e 266 275
e 266 286
e 266 292
e 267 301
e 267 307
e 268 276
e 268 302
e 269 273
e 270 286
e 270 292
e 270 307
e 271 279
e 271 285
e 272 287
e 272 300
e 274 289
e 274 305
e 274 306
e 275 286
e 275 292
e 275 295
e 276 302
e 277 288
e 277 296
e 277 297
e 278 281
e 279 283
e 279 285
e 282 296
e 283 304
e 283 310
e 284 311
e 286 292
e 287 290
e 287 300
e 288 293
e 288 296
e 289 305
e 289 306
e 290 295
e 290 300
e 292 301
e 294 297
e 299 312
e 303 308
e 304 310
e 306 309
